This is Ipopt version 3.14.13, running with linear solver MUMPS 5.6.0.

Number of nonzeros in equality constraint Jacobian...:    18044
Number of nonzeros in inequality constraint Jacobian.:        0
Number of nonzeros in Lagrangian Hessian.............:    40588

Total number of variables............................:     4015
                     variables with only lower bounds:     1002
                variables with lower and upper bounds:     2009
                     variables with only upper bounds:        0
Total number of equality constraints.................:     3012
Total number of inequality constraints...............:        0
        inequality constraints with only lower bounds:        0
   inequality constraints with lower and upper bounds:        0
        inequality constraints with only upper bounds:        0

iter    objective    inf_pr   inf_du lg(mu)  ||d||  lg(rg) alpha_du alpha_pr  ls
   0  0.0000000e+00 2.62e+03 1.05e+00  -1.0 0.00e+00    -  0.00e+00 0.00e+00   0
   1 -9.0030669e-03 1.65e+04 8.44e+04  -1.0 1.79e+00   2.0 6.16e-01 1.00e+00f  1
   2 -9.7370964e-03 6.03e+03 1.73e+05  -1.0 3.51e-01   5.1 5.20e-01 1.00e+00h  1
   3 -7.5374548e-03 2.12e+03 1.10e+07  -1.0 8.56e-01   6.5 6.93e-01 1.00e+00h  1
   4 -4.1793757e-03 1.24e+03 1.11e+08  -1.0 4.38e-01   7.8 1.00e+00 1.00e+00h  1
   5 -4.5159040e-04 7.63e+02 1.63e+08  -1.0 3.86e-01   8.2 1.00e+00 1.00e+00h  1
   6  1.6612018e-04 5.85e+02 1.78e+08  -1.0 2.75e-01   8.6 1.00e+00 1.00e+00h  1
   7  1.7862039e-04 3.11e+02 1.11e+09  -1.0 2.41e-01   9.1 1.00e+00 9.00e-01h  1
   8  1.1029157e-04 8.04e+01 1.35e+08  -1.0 1.55e-01   8.6 1.00e+00 1.00e+00h  1
   9  1.0832412e-04 1.14e+00 2.34e+06  -1.0 7.34e-03   8.1 8.94e-01 1.00e+00h  1
iter    objective    inf_pr   inf_du lg(mu)  ||d||  lg(rg) alpha_du alpha_pr  ls
  10  1.0840868e-04 3.05e-06 1.44e+03  -1.0 3.05e-05   7.6 1.00e+00 1.00e+00h  1
  11  1.0864270e-04 5.82e-11 1.25e+02  -1.0 8.60e-06   7.2 1.00e+00 1.00e+00f  1
  12  1.0934320e-04 5.82e-11 1.21e+02  -1.0 2.49e-05   6.7 1.00e+00 1.00e+00f  1
  13  1.1143116e-04 2.04e-10 1.10e+02  -1.0 6.78e-05   6.2 1.00e+00 1.00e+00f  1
  14  1.1758171e-04 1.69e-09 8.77e+01  -1.0 1.63e-04   5.7 1.00e+00 1.00e+00f  1
  15  1.3519975e-04 1.46e-08 5.97e+01  -1.0 3.33e-04   5.3 1.00e+00 1.00e+00f  1
  16  1.8327687e-04 1.30e-07 3.64e+01  -1.0 6.08e-04   4.8 1.00e+00 1.00e+00f  1
  17  3.0732847e-04 1.21e-06 2.09e+01  -1.0 1.05e-03   4.3 1.00e+00 1.00e+00f  1
  18  6.0954559e-04 1.20e-05 1.24e+01  -1.0 1.87e-03   3.8 1.00e+00 1.00e+00f  1
  19  1.2959509e-03 1.28e-04 9.36e+00  -1.0 4.22e-03   3.3 1.00e+00 1.00e+00f  1
iter    objective    inf_pr   inf_du lg(mu)  ||d||  lg(rg) alpha_du alpha_pr  ls
  20  2.7491338e-03 1.38e-03 6.64e+00  -1.0 8.98e-03   2.9 1.00e+00 1.00e+00f  1
  21  5.6542207e-03 1.45e-02 4.41e+00  -1.0 1.79e-02   2.4 1.00e+00 1.00e+00f  1
  22  1.1136439e-02 1.49e-01 2.76e+00  -1.0 3.36e-02   1.9 1.00e+00 1.00e+00f  1
  23  2.0969435e-02 1.53e+00 1.64e+00  -1.0 6.00e-02   1.4 1.00e+00 1.00e+00f  1
  24  2.4984236e-02 1.83e-01 1.77e+00  -1.0 2.42e-02   1.9 1.00e+00 1.00e+00f  1
  25  3.3418112e-02 1.97e+00 1.24e+00  -1.0 5.10e-02   1.4 1.00e+00 1.00e+00f  1
  26  3.6601910e-02 2.34e-01 1.22e+00  -1.0 1.89e-02   1.8 1.00e+00 1.00e+00f  1
  27  4.4269989e-02 2.47e+00 9.91e-01  -1.0 4.58e-02   1.3 1.00e+00 1.00e+00f  1
  28  4.4843350e-02 5.71e-03 1.74e-01  -1.7 3.01e-03   1.8 1.00e+00 1.00e+00h  1
  29  4.5097504e-02 2.36e-03 2.80e-02  -2.5 1.45e-03   1.3 1.00e+00 1.00e+00h  1
iter    objective    inf_pr   inf_du lg(mu)  ||d||  lg(rg) alpha_du alpha_pr  ls
  30  4.5175934e-02 1.20e-04 2.09e-03  -3.8 3.26e-04   0.8 1.00e+00 1.00e+00h  1
  31  4.5414204e-02 1.09e-03 2.11e-03  -3.8 9.88e-04   0.3 1.00e+00 1.00e+00h  1
  32  4.6124066e-02 9.89e-03 2.10e-03  -3.8 2.94e-03  -0.1 1.00e+00 1.00e+00h  1
  33  4.8212182e-02 9.17e-02 2.06e-03  -3.8 8.66e-03  -0.6 1.00e+00 1.00e+00h  1
  34  5.4163075e-02 8.98e-01 1.95e-03  -3.8 2.46e-02  -1.1 1.00e+00 1.00e+00h  1
  35  7.0257941e-02 1.12e+01 1.70e-03  -3.8 6.44e-02  -1.6 1.00e+00 1.00e+00h  1
  36  7.6778483e-02 1.29e+00 1.59e-03  -3.8 2.26e-02  -1.2 1.00e+00 1.00e+00h  1
  37  9.4874004e-02 1.96e+01 1.52e-03  -3.8 6.36e-02  -1.6 1.00e+00 1.00e+00h  1
  38  1.0245835e-01 1.88e+00 1.39e-03  -3.8 2.22e-02  -1.2 1.00e+00 1.00e+00h  1
  39  1.2417761e-01 2.93e+01 1.63e-03  -3.8 7.63e-02  -1.7 1.00e+00 1.00e+00h  1
iter    objective    inf_pr   inf_du lg(mu)  ||d||  lg(rg) alpha_du alpha_pr  ls
  40  1.3365418e-01 2.15e+00 1.44e-03  -3.8 2.60e-02  -1.3 1.00e+00 1.00e+00h  1
  41  1.6136087e-01 3.57e+01 1.62e-03  -3.8 8.66e-02  -1.7 1.00e+00 1.00e+00h  1
  42  1.7397434e-01 3.22e+00 1.55e-03  -3.8 3.16e-02  -1.3 1.00e+00 1.00e+00h  1
  43  1.7860912e-01 4.73e-01 1.59e-03  -3.8 1.21e-02  -0.9 1.00e+00 1.00e+00h  1
  44  1.9239261e-01 4.76e+00 1.71e-03  -3.8 3.88e-02  -1.4 1.00e+00 1.00e+00h  1
  45  1.9801418e-01 6.32e-01 1.62e-03  -3.8 1.39e-02  -0.9 1.00e+00 1.00e+00h  1
  46  2.1476514e-01 6.38e+00 1.77e-03  -3.8 4.52e-02  -1.4 1.00e+00 1.00e+00h  1
  47  2.2165946e-01 8.24e-01 1.66e-03  -3.8 1.60e-02  -1.0 1.00e+00 1.00e+00h  1
  48  2.4214857e-01 8.40e+00 1.91e-03  -3.8 5.54e-02  -1.5 1.00e+00 1.00e+00h  1
  49  2.5056975e-01 1.05e+00 1.80e-03  -3.8 1.96e-02  -1.0 1.00e+00 1.00e+00h  1
iter    objective    inf_pr   inf_du lg(mu)  ||d||  lg(rg) alpha_du alpha_pr  ls
  50  2.7534838e-01 1.08e+01 1.99e-03  -3.8 6.49e-02  -1.5 1.00e+00 1.00e+00h  1
  51  2.8525777e-01 1.29e+00 1.76e-03  -3.8 2.14e-02  -1.1 1.00e+00 1.00e+00h  1
  52  3.1398590e-01 1.32e+01 1.85e-03  -3.8 6.82e-02  -1.6 1.00e+00 1.00e+00h  1
  53  3.2483590e-01 1.47e+00 1.66e-03  -3.8 2.28e-02  -1.1 1.00e+00 1.00e+00h  1
  54  3.5584562e-01 1.49e+01 1.66e-03  -3.8 6.90e-02  -1.6 1.00e+00 1.00e+00h  1
  55  4.4012653e-01 1.15e+02 2.74e-03  -3.8 3.37e-01  -2.1 1.00e+00 1.00e+00h  1
  56  4.5378542e-01 5.03e+00 1.75e-03  -3.8 9.68e-02  -1.7 1.00e+00 1.00e+00h  1
  57  4.8536027e-01 6.26e+00 1.07e-03  -3.8 1.47e-01  -2.1 1.00e+00 1.00e+00h  1
  58  4.9054727e-01 4.26e+00 9.74e-04  -3.8 5.36e-02  -1.7 1.00e+00 1.00e+00h  1
  59  5.1050715e-01 9.83e+00 8.76e-04  -3.8 1.36e-01  -2.2 1.00e+00 1.00e+00h  1
iter    objective    inf_pr   inf_du lg(mu)  ||d||  lg(rg) alpha_du alpha_pr  ls
  60  5.4001707e-01 1.73e+02 8.55e-03  -3.8 1.17e+00  -2.7 5.38e-01 6.58e-01h  1
  61  5.7164216e-01 5.68e+02 6.30e-02  -3.8 1.28e+00  -2.2 3.57e-01 8.32e-01h  1
  62  5.8819395e-01 2.11e+02 3.15e-02  -3.8 2.13e-01  -0.9 4.84e-01 1.00e+00h  1
  63  5.7911408e-01 1.25e+02 9.74e-02  -3.8 2.69e-01  -0.5 9.89e-01 1.00e+00h  1
  64  5.5212124e-01 2.28e+01 1.16e-01  -3.8 1.67e-01  -0.1 1.00e+00 1.00e+00h  1
  65  5.3533021e-01 1.16e+00 3.83e-02  -3.8 1.03e-01  -0.5 1.00e+00 1.00e+00h  1
  66  5.3625069e-01 1.07e-01 5.35e-03  -3.8 4.10e-02  -1.0 1.00e+00 1.00e+00h  1
  67  5.4135798e-01 6.37e-01 1.58e-03  -3.8 4.45e-02  -1.5 1.00e+00 1.00e+00h  1
  68  5.4446153e-01 1.45e+01 1.53e-03  -3.8 2.01e+00    -  3.73e-01 2.95e-02h  5
  69  5.4626953e-01 1.63e+01 1.50e-03  -3.8 6.57e+00    -  1.19e-01 2.11e-02h  4
iter    objective    inf_pr   inf_du lg(mu)  ||d||  lg(rg) alpha_du alpha_pr  ls
  70  5.6808822e-01 1.24e+02 3.20e-03  -3.8 2.62e+00    -  3.73e-01 4.70e-01H  1
  71  5.8338414e-01 6.19e+01 4.91e-03  -3.8 1.58e+00    -  3.12e-01 9.03e-01H  1
  72  5.8346927e-01 2.48e+01 3.46e-03  -3.8 9.11e-01    -  1.00e+00 1.00e+00H  1
  73  5.8757845e-01 2.08e+01 7.19e-04  -3.8 2.33e-01    -  1.00e+00 1.00e+00h  1
  74  5.8708777e-01 3.90e-01 1.13e-04  -3.8 1.20e-01    -  1.00e+00 1.00e+00h  1
  75  5.8703117e-01 5.38e-03 3.92e-06  -3.8 2.81e-02    -  1.00e+00 1.00e+00h  1
  76  6.0872971e-01 1.27e+03 8.10e-04  -5.7 5.85e-01    -  5.67e-01 1.00e+00h  1
  77  6.0759444e-01 1.69e+03 2.76e-03  -5.7 8.65e+00    -  1.73e-01 1.55e-01h  1
  78  6.0813556e-01 1.76e+03 3.95e-02  -5.7 3.15e+01    -  1.50e-02 3.14e-02h  1
  79  6.0216363e-01 3.13e+03 6.83e-01  -5.7 3.29e+00  -2.0 8.35e-02 7.49e-01h  1
iter    objective    inf_pr   inf_du lg(mu)  ||d||  lg(rg) alpha_du alpha_pr  ls
  80  6.0154247e-01 2.23e+03 4.95e-01  -5.7 3.00e+00  -2.4 2.47e-05 2.77e-01h  1
  81  6.0062370e-01 1.98e+03 4.21e-01  -5.7 1.54e+01  -2.9 9.96e-02 1.02e-01h  1
  82  5.9056320e-01 1.59e+03 2.71e-01  -5.7 8.68e-01  -2.5 4.16e-01 1.00e+00H  1
  83  5.9962558e-01 7.07e+02 2.17e-02  -5.7 5.59e-01    -  5.31e-01 1.00e+00h  1
  84  5.9775663e-01 1.15e+02 1.10e-02  -5.7 3.58e-01  -3.0 8.41e-01 1.00e+00h  1
  85  5.9633642e-01 1.74e+01 4.79e-04  -5.7 1.70e-01  -3.5 1.00e+00 1.00e+00h  1
  86  5.9623271e-01 3.46e+01 6.08e-04  -5.7 7.34e-01  -3.0 3.91e-01 1.00e+00h  1
  87  5.9672566e-01 1.31e+01 6.93e-04  -5.7 6.47e-01    -  1.00e+00 9.92e-01h  1
  88  5.9656312e-01 1.63e+00 2.29e-04  -5.7 3.90e-01    -  1.00e+00 1.00e+00h  1
  89  5.9652930e-01 2.37e-02 3.65e-05  -5.7 1.78e-01    -  1.00e+00 1.00e+00h  1
iter    objective    inf_pr   inf_du lg(mu)  ||d||  lg(rg) alpha_du alpha_pr  ls
  90  5.9652984e-01 2.07e-04 1.04e-05  -5.7 8.99e-02    -  1.00e+00 1.00e+00h  1
  91  5.9652972e-01 3.50e-05 1.82e-06  -5.7 3.75e-02    -  1.00e+00 1.00e+00h  1
  92  5.9652966e-01 2.27e-06 1.18e-07  -5.7 9.55e-03    -  1.00e+00 1.00e+00h  1
  93  5.9654141e-01 3.15e-03 1.24e-06  -8.6 3.07e-02    -  9.81e-01 1.00e+00h  1
  94  5.9653758e-01 6.38e-06 2.74e-07  -8.6 1.45e-02    -  1.00e+00 1.00e+00h  1
  95  5.9653733e-01 1.08e-06 5.45e-08  -8.6 6.47e-03    -  1.00e+00 1.00e+00h  1
  96  5.9653730e-01 9.17e-08 4.63e-09  -8.6 1.88e-03    -  1.00e+00 1.00e+00h  1
  97  5.9653730e-01 9.58e-10 4.83e-11  -8.6 1.93e-04    -  1.00e+00 1.00e+00h  1

Number of Iterations....: 97

                                   (scaled)                 (unscaled)
Objective...............:  -5.9653730106283853e-01    5.9653730106283853e-01
Dual infeasibility......:   4.8337384711185851e-11    4.8337384711185851e-11
Constraint violation....:   9.5759883356194564e-10    9.5759883356194564e-10
Variable bound violation:   0.0000000000000000e+00    0.0000000000000000e+00
Complementarity.........:   2.5231120906437670e-09    2.5231120906437670e-09
Overall NLP error.......:   2.5231120906437670e-09    2.5231120906437670e-09


Number of objective function evaluations             = 116
Number of objective gradient evaluations             = 98
Number of equality constraint evaluations            = 116
Number of inequality constraint evaluations          = 0
Number of equality constraint Jacobian evaluations   = 98
Number of inequality constraint Jacobian evaluations = 0
Number of Lagrangian Hessian evaluations             = 97
Total seconds in IPOPT                               = 6.379

EXIT: Optimal Solution Found.
  6.681214 seconds (2.24 M allocations: 177.681 MiB, 1.96% gc time)
Final latitude θ = 34.179069673°